2676.47
0 156 112 6 92 45 89 146 27 28 105 152 58 53 0
0 147 183 13 117 91 46 63 167 111 138 154 26 40 0
0 176 1 132 69 127 52 166 94 95 137 139 149 180 0
0 96 18 153 190 162 101 50 77 76 184 12 109 195 0
0 196 116 21 2 97 59 104 99 86 17 60 106 31 0
0 130 55 198 73 115 178 87 151 118 194 88 0
0 110 179 177 150 80 157 102 70 7 83 5 93 37 192 144 0
0 98 125 182 148 122 158 3 68 54 72 0
0 33 123 82 114 199 84 173 85 100 42 172 57 171 74 0
0 185 188 30 10 62 8 61 193 145 197 4 155 0
0 159 189 108 51 81 79 129 121 24 163 134 22 0
0 48 174 16 191 142 41 133 75 56 25 165 29 169 0
0 186 15 119 44 141 113 124 126 90 160 20 9 120 78 0
0 103 128 131 181 11 107 19 168 14 43 39 187 0
0 47 175 32 161 164 34 170 23 0
0 38 140 36 143 49 64 66 71 65 136 35 135 67 0
